

1

2

1

1

1

1

1

1

1

1

1

1

1

1

1

1

1

1

1

1

1

1

1

1

1

1

1

1

1

1

1

1

1

1

1

1

1

1

1

1

1

1

1

1

1

1

1

1

1

1

1

1

1

1

1

1

1

1

1

1

1

1

1

1

1

1

1

1

1

1

1

1

1

1

1

1

1

1

1

1

1

1

1

1

1

1

1

3

1

1

1

1

1

1

1

1

1

1

1

1

3

1

1

1

1

1

1

1

1

1

1

1

1

1

1

1

2

1

1

1

1

1

1

1

2

1

1

1

1

2

1

1

1

1

1

1

1

1

1

1

1

1

6

1

1

1

1

1

1

1

1

1

1

1

1

1

1

1

1

1

1

1

1

1

1

1

1

1

1

1

1

1

1

1

1

1

1

1

1

1

1

1

1

1

1

1

1

1

1

1

1

1

1

1

1

1

1

1

1

1

1

3

1

1

1

1

1

1

1

1

1

1

1

1

1

3

1

1

1

1

2

1

1

1

1

1

1

1

1

1

1

1

1

1

1

1

1

1

1

1

1

1

1

1

1

1

1

1

1

1

1

1

1

1

1

1

1

1

1

1

1

1

1

1

1

1

1

1

1

1

1

1

1

1

1

1

1

1

1

1

3

2

1

1

2

1

1

1

1

2

1

1

1

1

1

1

1

1

1

1

1

1

1

1

1

1

1

1

1

1

1

1

1

1

1

1

1

1

1

1

29

1

1

4

1

1

1

1

1

1

1

1

1

1

1

1

1

1

1

1

3

1

1

1

1

1

1

1

1

1

1

1

1

1

1

1

1

1

1

1

1

1

1

1

1

1

1

1

1

1

1

1

1

1

1

1

1

1

1

1

4

1

1

1

1

1

4

1

1

1

1

1

1

1

4

1

1

1

1

1

1

14

1

1

1

1

1

1

1

1

1

1

1

1

1

1

8

1

1

1

1

1

1

1

1

1

1

1

1

1

1

1

1

1

1

1

1

1

1

1

5

6

1

1

1

1

1

1

1

1

1

1

1

5

1

1

1

1

1

1

1

1

1

1

2

1

1

1

1

1

1

11

4

1

1

1

1

1

1

1

1

1

1

1

1

1

1

1

1

2

1

1

1

1

1

1

1

1

1

1

1

1

1

2

1

3

1

1

1

1

1

1

1

1

1

1

1

1

1

1

1

1

1

1

1

3

1

1

1

1

1

8

1

1

1

1

1

1

1

1

1

2

1

1

1

1

1

1

7

1

1

1

1

1

1

1

1

1

1

1

1

10

1

1

1

1

1

1

1

1

1

1

1

1

1

1

1

1

1

3

1

1

1

1

1

1

1

1

2

1

1

1

1

1

1

1

1

1

1

1

9

1

3

1

1

2

1

4

9

3

1

1

2

1

1

1

1

1

23

1

1

1

1

1

1

1

1

1

1

1

1

1

1

1

1

1119

1

1

1

1

1

2

2

1

1

2

1

2

1

1

1

16

1

13

9

3

1

4

32

18

1

1

1

1

1

1

1

1

1

1

1

8

2

1

1

1

1

1

1

1

1

1

1

6

1

1

1

2

1

1

1

2

2

1

1

1

1

1

1

1

1

5

1

1

8

1

1

1

4

1

1

1

1

1

1

1

1

1

36

1

12

1

3

5

7

1

1

1

3

2

1

6

3

2

1

1

1

3

1

1

1

1

1

1

1

1

1

4

1

1

2

1

2

1

1

1

1

1

1

1

1

1

2

2

4

3

1

1

3

36

1

1

16

1

1

1

3

1

4

1

1

1

1

1

1

1

1

1

1

1

1

1

3

1

1

1

1

1

1

1

6

1

2

19

1

5

1

2

4

1

1

2

8

64

4

1

1

1

2

1

1

1

2

2

1

1

2

1

1

22

1

2

1

9

1

1

1

1

2

1

1

2

2

3

4

4

1

2

10

1

1

14

12

5

10

4

1

1

2

1

1

3

6

1

1

1

1

1

1

1

7

1

1

3

1

1

1

1

4

3

1

12

3

2

1

32

1

1

6

1

1

5

3

6

7

1

1

1

5

1

1

2

1

1

1

2

1

1

1

1

2

1

1

90

1

1

1

4

1

3

2

1

1

1

1

1

7

68

4

1

3

3

21

2

1

1

1

1

1

8

1

7

2

1

1

1

1

1

1

1

1

4

2

1

1

1

1

1

1

1

1

1

1

1

1

1

1

1

5

1

2

1

1

2

1

1

1

1

2

2

2

1

2

1

1

1

1

4

1

10

1

6

21

1

1

1

1

1

1

1

1

1

1

1

1

2

3

1

1

1

1

12

1

1

1

1

1

1

8

4

1

5

1

1

1

1

1

1

1

1

1

3

1

2

1

1

4

2

1

1

1

1

1

1

1

1

1

1

4

1

5

1

1

1

6

1

1

1

1

1

1

1

1

1

3

1

18

8

1

1

1

2

1

1

1

2

8

1

1

1

1

1

1

1

2

1

1

1

1

1

2

1

2

1

1

4

1

1

1

1

1

1

1

1

3

1

1

1

1

1

1

1

1

1

1

1

1

2

4

3

1

1

1

1

2

1

1

1

1

3

1

1

1

1

1

6

1

1

1

1

1

16

1

1

1

1

1

1

1

1

8

1

1

16

1

1

1

1

8

1

1

1

1

1

1

1

1

1

1

1

1

1

1

1

1

2

1

1

1

1

1

1

1

1

1

1

1

1

1

1

1

1

1

1

1

1

1

1

1

1

1

1

1

1

1

1

1

1

1

1

1

1

1

1

6

1

1

1

1

1

1

1

1

1

1

1

1

1

1

1

1

1

1

1

1

1

1

1

4

1

1

1

1

1

4

1

1

1

1

1

1

1

1

19

21

23

1

1

1

1

1

1

1

1

1

1

1

1

1

1

1

1

1

1

1

1

1

1

6

1

1

1

1

1

1

1

1

1

1

1

1

1

1

4

7

76

1

1

1

1

1

1

1

1

1

1

1

1

1

1

1

1

1

1

1

1

1

1

1

1

5

1

1

1

1

1

1

1

1

4

2

1

1

2

15

3

1

1

1

1

1

1

1

1

2

4

1

1

6

1

1

1

1

1

5

1

1

1

4

1

1

1

1

1

1

1

1

1

1

1

1

1

1

3

3

4

1

1

1

1

1

7

1

1

13

5

5

19

1

1

1

1

1

1

1

1

1

1

1

1

1

1

1

1

1

1

3

1

1

1

2

1

1

2

1

1

1

2

1

1

1

17

1

2

8

14

2

1

7

1

1

1

1

1

1

1

1

1

1

1

1

1

1

1

1

1

1

1

1

1

1

1

6

1

1

1

1

1

1

1

1

3

1

1

1

3

1

1

3

7

1

1

1

1

1

1

1

1

1

1

1

1

1

1

1

1

1

1

1

1

1

1

1

1

1

1

1

1

1

1

5

1

1

1

1

1

7

1

1

2

1

1

1

4

1

1

1

1

1

1

1

1

1

1

1

1

1

1

1

1

1

1

1

1

1

1

1

1

1

1

3

1

1

1

1

3

1

1

1

1

1

1

1

1

1

278

1

1

1

1

1

1

1

1

1

1

1

1

1

1

1

1

1

1

1

1

1

1

1

1

1

1

1

1

1

1

1

1

1

1

1

1

1

1

1

1

1

1

1

1

